c This Formular is generated by mcnf
c
c    horn? no 
c    forced? no 
c    mixed sat? no 
c    clause length = 3 
c
p cnf 20  91 
 5 -6 2 0
-14 4 -15 0
4 -2 16 0
9 -2 4 0
16 -8 6 0
-11 -5 7 0
15 6 -9 0
-19 -7 -18 0
3 -4 13 0
-14 -9 -17 0
1 -5 -2 0
13 -10 19 0
-17 -18 8 0
-6 15 7 0
8 -14 9 0
1 13 7 0
-16 -13 -12 0
16 10 -8 0
-6 9 -14 0
13 -15 8 0
-4 20 -14 0
13 -17 -7 0
15 7 -10 0
2 15 -7 0
3 -17 20 0
1 10 14 0
19 10 11 0
16 -20 8 0
19 15 -4 0
4 5 9 0
7 -15 20 0
-7 -8 17 0
-13 17 -10 0
16 -3 1 0
-11 3 -8 0
3 15 -11 0
9 -17 14 0
3 -10 -11 0
11 20 19 0
-8 12 5 0
18 -1 19 0
%
0

98 48 24 82 47 60 55 57 14 98 87 78 23 95 84 96 18 15 75 43
